Normalized Data/p02_13_normalized_splitx10_0.vrp
NAME:p02_13_NORMALIZED_splitx10_
BEST_KNOWN: 0
COMMENT: 0
DIMENSION: 271
CAPACITY: 1000
EDGE_WEIGHT_FORMAT: FUNCTION
EDGE_WEIGHT_TYPE: EXACT_2D
NODE_COORD_SECTION
1 0.00000 0.00000
2 -9 35
3 -9 35
4 -9 35
5 20 8
6 20 8
7 20 8
8 20 8
9 20 8
10 20 8
11 34 48
12 34 48
13 34 48
14 34 48
15 -46 34
16 -46 34
17 -46 34
18 10 -47
19 10 -47
20 10 -47
21 35 -22
22 35 -22
23 45 -40
24 45 -40
25 45 -40
26 -41 46
27 -41 46
28 -41 46
29 -41 46
30 -18 17
31 -18 17
32 -18 17
33 -18 17
34 -15 8
35 -15 8
36 39 -33
37 39 -33
38 39 -33
39 -10 -34
40 -10 -34
41 -10 -34
42 24 7
43 24 7
44 24 7
45 1 -22
46 1 -22
47 1 -22
48 1 -22
49 1 -22
50 50 -8
51 50 -8
52 50 -8
53 32 -26
54 32 -26
55 32 -26
56 11 -25
57 11 -25
58 47 -16
59 47 -16
60 6 -17
61 6 -17
62 6 -17
63 6 -17
64 6 -17
65 5 50
66 5 50
67 5 50
68 5 50
69 5 50
70 5 50
71 -15 -12
72 -4 7
73 -4 7
74 -4 7
75 -31 15
76 -31 15
77 -31 15
78 -31 15
79 22 15
80 22 15
81 22 15
82 22 15
83 22 15
84 -48 5
85 -48 5
86 -48 5
87 30 -10
88 30 -10
89 30 -10
90 30 -10
91 -37 -1
92 -37 -1
93 47 -15
94 47 -15
95 47 -15
96 47 -15
97 50 8
98 50 8
99 50 8
100 -14 -5
101 -14 -5
102 -14 -5
103 28 15
104 28 15
105 28 15
106 -10 35
107 -10 35
108 -10 35
109 -10 35
110 -10 -32
111 -10 -32
112 -26 30
113 -26 30
114 -24 32
115 -24 32
116 -36 24
117 -36 24
118 -36 24
119 -36 24
120 -36 24
121 -36 24
122 24 -17
123 24 -17
124 31 -1
125 31 -1
126 31 -1
127 31 -1
128 31 -1
129 -18 -15
130 -18 -15
131 -18 -15
132 -18 -15
133 -25 24
134 -25 24
135 -26 -23
136 -26 -23
137 -26 -23
138 -26 -23
139 -1 0
140 -1 0
141 -1 0
142 -1 0
143 -1 0
144 -49 -18
145 -49 -18
146 -49 -18
147 -49 -18
148 -47 -12
149 -2 -33
150 -2 -33
151 -2 -33
152 -2 -33
153 -2 -33
154 28 40
155 28 40
156 28 40
157 28 40
158 28 40
159 28 40
160 -40 -14
161 -40 -14
162 -42 19
163 -42 19
164 -42 19
165 -42 19
166 7 -16
167 -19 9
168 -27 -4
169 -27 -4
170 -27 -4
171 -27 -4
172 -8 29
173 -8 29
174 -8 29
175 -8 29
176 -8 29
177 -8 29
178 21 16
179 21 16
180 21 16
181 21 16
182 21 16
183 41 -34
184 41 -34
185 41 -34
186 41 -34
187 36 -47
188 36 -47
189 36 -47
190 -21 -21
191 -21 -21
192 -21 -21
193 6 23
194 6 23
195 6 23
196 6 23
197 6 23
198 6 23
199 -8 24
200 -8 24
201 -8 24
202 -8 24
203 -31 32
204 -31 32
205 -31 32
206 -34 25
207 -34 25
208 -34 25
209 -34 25
210 32 -19
211 32 -19
212 32 -19
213 -31 -37
214 -31 -37
215 -31 -37
216 -31 -37
217 -13 -45
218 -13 -45
219 -13 -45
220 -12 -9
221 -12 -9
222 -12 -9
223 -12 -9
224 -12 -9
225 2 21
226 2 21
227 -11 -40
228 -11 -40
229 -11 -40
230 -11 -40
231 -11 -40
232 -47 3
233 -47 3
234 -47 3
235 -47 3
236 -47 3
237 -8 -46
238 -8 -46
239 -4 30
240 -4 30
241 -4 30
242 -4 30
243 -4 30
244 -4 30
245 -4 30
246 -27 18
247 -27 18
248 -27 18
249 -27 18
250 -27 18
251 -27 18
252 -27 18
253 37 -9
254 37 -9
255 37 -9
256 -36 -25
257 -36 -25
258 -36 -25
259 -36 -25
260 -36 -25
261 40 42
262 40 42
263 40 42
264 -2 -28
265 -2 -28
266 -2 -28
267 -2 -28
268 -2 -28
269 -1 -24
270 -1 -24
271 -1 -24
DEMAND_SECTION
1 0
2 200
3 100
4 10
5 200
6 200
7 50
8 10
9 10
10 10
11 200
12 100
13 50
14 10
15 200
16 200
17 100
18 200
19 50
20 10
21 200
22 10
23 200
24 200
25 50
26 200
27 100
28 50
29 10
30 200
31 100
32 50
33 10
34 200
35 50
36 100
37 10
38 10
39 200
40 200
41 50
42 200
43 200
44 50
45 200
46 200
47 50
48 10
49 10
50 100
51 10
52 10
53 200
54 200
55 50
56 200
57 50
58 200
59 50
60 200
61 100
62 10
63 10
64 10
65 200
66 100
67 50
68 10
69 10
70 10
71 200
72 100
73 50
74 10
75 200
76 200
77 10
78 10
79 100
80 50
81 10
82 10
83 10
84 100
85 10
86 10
87 100
88 50
89 10
90 10
91 200
92 10
93 200
94 200
95 10
96 10
97 200
98 100
99 50
100 100
101 10
102 10
103 200
104 10
105 10
106 200
107 100
108 10
109 10
110 200
111 50
112 100
113 50
114 200
115 100
116 200
117 100
118 10
119 10
120 10
121 10
122 200
123 50
124 200
125 200
126 50
127 10
128 10
129 200
130 100
131 50
132 10
133 200
134 200
135 200
136 100
137 50
138 10
139 100
140 10
141 10
142 10
143 10
144 200
145 50
146 10
147 10
148 200
149 100
150 50
151 10
152 10
153 10
154 200
155 100
156 10
157 10
158 10
159 10
160 200
161 50
162 100
163 50
164 10
165 10
166 200
167 200
168 100
169 50
170 10
171 10
172 200
173 200
174 10
175 10
176 10
177 10
178 200
179 200
180 50
181 10
182 10
183 100
184 10
185 10
186 10
187 200
188 200
189 100
190 200
191 50
192 10
193 100
194 50
195 10
196 10
197 10
198 10
199 100
200 10
201 10
202 10
203 200
204 50
205 10
206 200
207 50
208 10
209 10
210 200
211 50
212 10
213 200
214 100
215 50
216 10
217 100
218 10
219 10
220 200
221 200
222 50
223 10
224 10
225 200
226 100
227 200
228 10
229 10
230 10
231 10
232 200
233 100
234 10
235 10
236 10
237 200
238 100
239 200
240 100
241 50
242 10
243 10
244 10
245 10
246 200
247 100
248 50
249 10
250 10
251 10
252 10
253 200
254 200
255 50
256 200
257 200
258 50
259 10
260 10
261 200
262 50
263 10
264 100
265 50
266 10
267 10
268 10
269 200
270 100
271 50
DEPOT_SECTION
1
-1
EOF