Normalized Data/p02_13_normalized_splitx10_0.sol
270 -2 1 3 108 105 106 107 31 29 32 30 -4 8 5 9 6 7 41 43 42 -18 19 17 237 236 216 217 218 227 228 230 229 226 264 267 -23 22 24 188 186 187 -33 34 166 246 249 245 250 251 247 248 71 73 72 -47 48 45 44 46 270 269 268 142 139 138 140 141 -50 51 49 93 95 92 94 57 58 209 -53 54 52 35 36 37 183 184 182 185 21 20 210 211 -56 55 122 121 124 125 126 127 123 -70 191 190 189 128 129 99 100 101 -74 75 77 116 118 119 115 205 206 207 208 -76 164 161 162 163 83 84 85 231 233 234 235 232 91 90 167 168 170 -87 88 89 86 254 253 252 97 98 96 -102 103 104 79 82 81 80 78 178 180 181 177 179 -110 109 38 40 39 149 151 148 152 150 263 266 265 -111 204 27 25 26 28 14 16 15 120 117 -114 113 112 203 202 133 132 -131 130 255 143 145 144 146 147 159 160 169 -134 136 137 135 256 257 258 259 213 215 214 212 -156 153 154 155 157 158 11 13 10 12 262 260 261 -165 60 63 62 61 59 220 219 223 222 221 -197 194 193 196 192 195 66 64 65 67 69 68 224 225 -201 199 198 200 174 173 176 175 172 171 239 242 238 244 243 241 240 0 





OBJ=
2119.420
BEST_KNOWN=
0.000